nbGenes = 10;
preference = [[0 36 52 0 77 19 60 18 70 10 ]
[64 0 66 64 87 42 92 35 94 11 ]
[48 34 0 95 60 96 42 36 13 33 ]
[100 36 5 0 21 26 55 18 66 81 ]
[23 13 40 79 0 26 61 14 92 22 ]
[81 58 4 74 74 0 75 47 95 26 ]
[40 8 58 45 39 25 0 42 18 52 ]
[82 65 64 82 86 53 58 0 54 93 ]
[30 6 87 34 8 5 82 46 0 33 ]
[90 89 67 19 78 74 48 7 67 0 ]
];
